(set-logic QF_UF)
(declare-fun A0 () Bool)
(declare-fun A1 () Bool)
(declare-fun A2 () Bool)
(declare-fun A3 () Bool)
(declare-fun A4 () Bool)
(declare-fun A5 () Bool)
(declare-fun A8 () Bool)
(declare-fun A9 () Bool)
(declare-fun A10 () Bool)
(declare-fun A11 () Bool)
(declare-fun A12 () Bool)
(declare-fun A13 () Bool)
(declare-fun A14 () Bool)
(declare-fun A15 () Bool)
(declare-fun A16 () Bool)
(declare-fun A17 () Bool)
(declare-fun A18 () Bool)
(declare-fun A19 () Bool)
(declare-fun A20 () Bool)
(declare-fun A21 () Bool)
(declare-fun A22 () Bool)
(declare-fun A23 () Bool)
(declare-fun A24 () Bool)
(declare-fun A25 () Bool)
(declare-fun A27 () Bool)
(declare-fun A28 () Bool)
(declare-fun A29 () Bool)
(assert (let ((.def_0 (and A23 A23))) (let ((.def_1 (not A12))) (let ((.def_2 (and .def_1 .def_1))) (let ((.def_3 (not .def_2))) (let ((.def_4 (or .def_3 .def_0))) (let ((.def_5 (not .def_4))) (let ((.def_6 (not A2))) (let ((.def_7 (or A2 .def_6))) (let ((.def_8 (not A16))) (let ((.def_9 (or A9 .def_8))) (let ((.def_10 (= .def_9 .def_7))) (let ((.def_11 (= .def_10 .def_5))) (let ((.def_12 (not .def_11))) (let ((.def_13 (not A10))) (let ((.def_14 (or .def_13 A2))) (let ((.def_15 (or A8 A3))) (let ((.def_16 (not .def_15))) (let ((.def_17 (or .def_16 .def_14))) (let ((.def_18 (not .def_17))) (let ((.def_19 (not A21))) (let ((.def_20 (and .def_19 .def_19))) (let ((.def_21 (not A24))) (let ((.def_22 (or .def_21 A13))) (let ((.def_23 (= .def_22 .def_20))) (let ((.def_24 (and .def_23 .def_18))) (let ((.def_25 (not .def_24))) (let ((.def_26 (and .def_25 .def_12))) (let ((.def_27 (or A9 A10))) (let ((.def_28 (not .def_27))) (let ((.def_29 (not A23))) (let ((.def_30 (or .def_29 A20))) (let ((.def_31 (or .def_30 .def_28))) (let ((.def_32 (or A19 A1))) (let ((.def_33 (not A19))) (let ((.def_34 (or .def_33 A16))) (let ((.def_35 (not .def_34))) (let ((.def_36 (or .def_35 .def_32))) (let ((.def_37 (not .def_36))) (let ((.def_38 (= .def_37 .def_31))) (let ((.def_39 (not A14))) (let ((.def_40 (not A15))) (let ((.def_41 (= .def_40 .def_39))) (let ((.def_42 (not A18))) (let ((.def_43 (or A28 .def_42))) (let ((.def_44 (or .def_43 .def_41))) (let ((.def_45 (and A18 A11))) (let ((.def_46 (not A13))) (let ((.def_47 (not A1))) (let ((.def_48 (or .def_47 .def_46))) (let ((.def_49 (and .def_48 .def_45))) (let ((.def_50 (not .def_49))) (let ((.def_51 (or .def_50 .def_44))) (let ((.def_52 (or .def_51 .def_38))) (let ((.def_53 (or .def_52 .def_26))) (let ((.def_54 (not .def_53))) (let ((.def_55 (not A25))) (let ((.def_56 (and A28 .def_55))) (let ((.def_57 (not A28))) (let ((.def_58 (and .def_57 A19))) (let ((.def_59 (and .def_58 .def_56))) (let ((.def_60 (not A22))) (let ((.def_61 (or .def_60 .def_1))) (let ((.def_62 (and A19 A29))) (let ((.def_63 (and .def_62 .def_61))) (let ((.def_64 (and .def_63 .def_59))) (let ((.def_65 (or A10 .def_47))) (let ((.def_66 (not .def_65))) (let ((.def_67 (or A1 A20))) (let ((.def_68 (not .def_67))) (let ((.def_69 (or .def_68 .def_66))) (let ((.def_70 (and .def_13 A25))) (let ((.def_71 (not .def_70))) (let ((.def_72 (or .def_60 A4))) (let ((.def_73 (not .def_72))) (let ((.def_74 (= .def_73 .def_71))) (let ((.def_75 (or .def_74 .def_69))) (let ((.def_76 (or .def_75 .def_64))) (let ((.def_77 (not .def_76))) (let ((.def_78 (not A0))) (let ((.def_79 (= A17 .def_78))) (let ((.def_80 (not .def_79))) (let ((.def_81 (not A27))) (let ((.def_82 (= .def_81 A24))) (let ((.def_83 (not .def_82))) (let ((.def_84 (or .def_83 .def_80))) (let ((.def_85 (not .def_84))) (let ((.def_86 (not A4))) (let ((.def_87 (or .def_86 A10))) (let ((.def_88 (and .def_47 A5))) (let ((.def_89 (not .def_88))) (let ((.def_90 (or .def_89 .def_87))) (let ((.def_91 (not .def_90))) (let ((.def_92 (or .def_91 .def_85))) (let ((.def_93 (= .def_1 A28))) (let ((.def_94 (or A0 A8))) (let ((.def_95 (and .def_94 .def_93))) (let ((.def_96 (and A16 A20))) (let ((.def_97 (not .def_96))) (let ((.def_98 (or A18 A22))) (let ((.def_99 (and .def_98 .def_97))) (let ((.def_100 (and .def_99 .def_95))) (let ((.def_101 (not .def_100))) (let ((.def_102 (or .def_101 .def_92))) (let ((.def_103 (and .def_102 .def_77))) (let ((.def_104 (and .def_103 .def_54))) .def_104))))))))))))))))))))))))))))))))))))))))))))))))))))))))))))))))))))))))))))))))))))))))))))))))))))))))))
(check-sat)
